(set-logic QF_SLIA)
(declare-fun var0 () String)
(assert (not (str.in_re var0 (re.++ ((_ re.loop 9 912) (re.++ (re.union (str.to_re "M") (re.union (str.to_re "F") (re.union (str.to_re "sOw") (str.to_re "n")))) (re.++ (re.union (str.to_re "K") (re.union (str.to_re "?") (re.union (str.to_re "B") (str.to_re "K")))) (re.++ (re.union (str.to_re "~F7") (re.union (str.to_re ".I^") (re.union (str.to_re "\\") (str.to_re "b|S")))) (re.union (str.to_re ",p") (re.union (str.to_re "_e") (re.union (str.to_re "Pu]") (str.to_re "z")))))))) (re.++ ((_ re.loop 9 970) (re.++ (re.union (str.to_re "Oyt") (re.union (str.to_re "Cs") (re.union (str.to_re "E") (str.to_re "!oS")))) (re.++ (re.union (str.to_re ">") (re.union (str.to_re "_s") (re.union (str.to_re "&-") (str.to_re "nI")))) (re.++ (re.union (str.to_re "F") (re.union (str.to_re "pQ!") (re.union (str.to_re "-") (str.to_re ".X2")))) (re.union (str.to_re "S8") (re.union (str.to_re "tS~") (re.union (str.to_re "O!F") (str.to_re "L6")))))))) (re.++ ((_ re.loop 11 721) (re.++ (re.union (str.to_re "M") (re.union (str.to_re "&") (re.union (str.to_re "K") (str.to_re "Vvs")))) (re.++ (re.union (str.to_re "O9") (re.union (str.to_re "TLs") (re.union (str.to_re ")BR") (str.to_re "TZ")))) (re.++ (re.union (str.to_re ":E3") (re.union (str.to_re "A") (re.union (str.to_re "PL") (str.to_re "3")))) (re.union (str.to_re "a0") (re.union (str.to_re "E") (re.union (str.to_re "g") (str.to_re "i")))))))) ((_ re.loop 8 34) (re.++ (re.union (str.to_re "|/") (re.union (str.to_re "Q.") (re.union (str.to_re "<") (str.to_re "U.")))) (re.++ (re.union (str.to_re "!Uq") (re.union (str.to_re "+") (re.union (str.to_re "e") (str.to_re "/")))) (re.++ (re.union (str.to_re "`76") (re.union (str.to_re "=}w") (re.union (str.to_re ";") (str.to_re "b")))) (re.union (str.to_re "e") (re.union (str.to_re "9k") (re.union (str.to_re "8") (str.to_re "ijz"))))))))))))))
(assert (not (str.in_re var0 (re.++ ((_ re.loop 9 194) (re.++ (re.union (str.to_re "b") (re.union (str.to_re "7hR") (re.union (str.to_re "p\\,") (str.to_re ",=B")))) (re.++ (re.union (str.to_re "LWp") (re.union (str.to_re "SI") (re.union (str.to_re "FmO") (str.to_re "W")))) (re.++ (re.union (str.to_re "aO>") (re.union (str.to_re "yU1") (re.union (str.to_re "nA^") (str.to_re "I{x")))) (re.union (str.to_re "NW") (re.union (str.to_re "\u0022#") (re.union (str.to_re "\u0022") (str.to_re "~O")))))))) (re.++ ((_ re.loop 14 314) (re.++ (re.union (str.to_re "/x)") (re.union (str.to_re "7{$") (re.union (str.to_re "~") (str.to_re "0")))) (re.++ (re.union (str.to_re "N") (re.union (str.to_re "(") (re.union (str.to_re "Do^") (str.to_re "nh")))) (re.++ (re.union (str.to_re "1v") (re.union (str.to_re "r:") (re.union (str.to_re "4V") (str.to_re "F")))) (re.union (str.to_re "x") (re.union (str.to_re "jPR") (re.union (str.to_re "vo") (str.to_re "K,H")))))))) (re.++ ((_ re.loop 3 809) (re.++ (re.union (str.to_re "83.") (re.union (str.to_re "Bud") (re.union (str.to_re "s") (str.to_re "&)")))) (re.++ (re.union (str.to_re "w") (re.union (str.to_re "7__") (re.union (str.to_re ";^") (str.to_re "r")))) (re.++ (re.union (str.to_re "?\u0022") (re.union (str.to_re "P") (re.union (str.to_re "c)") (str.to_re "s")))) (re.union (str.to_re "J") (re.union (str.to_re "E") (re.union (str.to_re "I") (str.to_re "lH,")))))))) ((_ re.loop 13 800) (re.++ (re.union (str.to_re "\u0022<|") (re.union (str.to_re "F.") (re.union (str.to_re "fc") (str.to_re "!+}")))) (re.++ (re.union (str.to_re "ll<") (re.union (str.to_re "*") (re.union (str.to_re "u_") (str.to_re "%lw")))) (re.++ (re.union (str.to_re "9Y") (re.union (str.to_re "l`") (re.union (str.to_re "J$") (str.to_re "J")))) (re.union (str.to_re "A") (re.union (str.to_re "{C") (re.union (str.to_re "Cb$") (str.to_re "un"))))))))))))))
(assert (not (str.in_re var0 (re.++ (re.* re.allchar) (re.++ (re.union (str.to_re "<") (re.union (str.to_re ">") (re.union (str.to_re "'") (re.union (str.to_re "\u0022") (str.to_re "&"))))) (re.* re.allchar))))))
(assert (<= 50 (str.len var0)))
(check-sat)
(get-model)
